
  17    4
  10   10   10   10

   0   0   0   0   0   4 2 3 4 8 
   5  10  10  10  10   4 13 9 7 6 
   4  10  10  10  10   3 12 9 5 
   7  10  10  10  10   4 16 13 11 7 
   4  10  10  10  10   4 16 13 11 10 
   5  10  10  10  10   4 16 12 11 10 
   5  10  10  10  10   2 12 10 
   4  10  10  10  10   2 14 10 
  10  10  10  10  10   1 11 
   6  10  10  10  10   1 15 
   1  10  10  10  10   1 14 
   6  10  10  10  10   1 14 
   6  10  10  10  10   1 14 
  10  10  10  10  10   1 17
   8  10  10  10  10   1 17
   1  10  10  10  10   1 17
   0   0   0   0   0   0 
